c *********************************
c * Circuit generated by BenCGen
c *
c * RippleCarryAdderSubtractor_61_61_61_OutSunT
c *
c * Ports with 1 gate(s): 2
c * Ports with 2 gate(s): 368
c * Total gates: 370
c *********************************
p cnf 492 1292
1 186 0
-1 -186 0
1 -185 0
186 -185 0
-1 -186 185 0
185 187 0
-185 -187 0
62 185 -188 0
-62 185 188 0
62 -185 188 0
-62 -185 -188 0
63 185 -189 0
-63 185 189 0
63 -185 189 0
-63 -185 -189 0
64 185 -190 0
-64 185 190 0
64 -185 190 0
-64 -185 -190 0
65 185 -191 0
-65 185 191 0
65 -185 191 0
-65 -185 -191 0
66 185 -192 0
-66 185 192 0
66 -185 192 0
-66 -185 -192 0
67 185 -193 0
-67 185 193 0
67 -185 193 0
-67 -185 -193 0
68 185 -194 0
-68 185 194 0
68 -185 194 0
-68 -185 -194 0
69 185 -195 0
-69 185 195 0
69 -185 195 0
-69 -185 -195 0
70 185 -196 0
-70 185 196 0
70 -185 196 0
-70 -185 -196 0
71 185 -197 0
-71 185 197 0
71 -185 197 0
-71 -185 -197 0
72 185 -198 0
-72 185 198 0
72 -185 198 0
-72 -185 -198 0
73 185 -199 0
-73 185 199 0
73 -185 199 0
-73 -185 -199 0
74 185 -200 0
-74 185 200 0
74 -185 200 0
-74 -185 -200 0
75 185 -201 0
-75 185 201 0
75 -185 201 0
-75 -185 -201 0
76 185 -202 0
-76 185 202 0
76 -185 202 0
-76 -185 -202 0
77 185 -203 0
-77 185 203 0
77 -185 203 0
-77 -185 -203 0
78 185 -204 0
-78 185 204 0
78 -185 204 0
-78 -185 -204 0
79 185 -205 0
-79 185 205 0
79 -185 205 0
-79 -185 -205 0
80 185 -206 0
-80 185 206 0
80 -185 206 0
-80 -185 -206 0
81 185 -207 0
-81 185 207 0
81 -185 207 0
-81 -185 -207 0
82 185 -208 0
-82 185 208 0
82 -185 208 0
-82 -185 -208 0
83 185 -209 0
-83 185 209 0
83 -185 209 0
-83 -185 -209 0
84 185 -210 0
-84 185 210 0
84 -185 210 0
-84 -185 -210 0
85 185 -211 0
-85 185 211 0
85 -185 211 0
-85 -185 -211 0
86 185 -212 0
-86 185 212 0
86 -185 212 0
-86 -185 -212 0
87 185 -213 0
-87 185 213 0
87 -185 213 0
-87 -185 -213 0
88 185 -214 0
-88 185 214 0
88 -185 214 0
-88 -185 -214 0
89 185 -215 0
-89 185 215 0
89 -185 215 0
-89 -185 -215 0
90 185 -216 0
-90 185 216 0
90 -185 216 0
-90 -185 -216 0
91 185 -217 0
-91 185 217 0
91 -185 217 0
-91 -185 -217 0
92 185 -218 0
-92 185 218 0
92 -185 218 0
-92 -185 -218 0
93 185 -219 0
-93 185 219 0
93 -185 219 0
-93 -185 -219 0
94 185 -220 0
-94 185 220 0
94 -185 220 0
-94 -185 -220 0
95 185 -221 0
-95 185 221 0
95 -185 221 0
-95 -185 -221 0
96 185 -222 0
-96 185 222 0
96 -185 222 0
-96 -185 -222 0
97 185 -223 0
-97 185 223 0
97 -185 223 0
-97 -185 -223 0
98 185 -224 0
-98 185 224 0
98 -185 224 0
-98 -185 -224 0
99 185 -225 0
-99 185 225 0
99 -185 225 0
-99 -185 -225 0
100 185 -226 0
-100 185 226 0
100 -185 226 0
-100 -185 -226 0
101 185 -227 0
-101 185 227 0
101 -185 227 0
-101 -185 -227 0
102 185 -228 0
-102 185 228 0
102 -185 228 0
-102 -185 -228 0
103 185 -229 0
-103 185 229 0
103 -185 229 0
-103 -185 -229 0
104 185 -230 0
-104 185 230 0
104 -185 230 0
-104 -185 -230 0
105 185 -231 0
-105 185 231 0
105 -185 231 0
-105 -185 -231 0
106 185 -232 0
-106 185 232 0
106 -185 232 0
-106 -185 -232 0
107 185 -233 0
-107 185 233 0
107 -185 233 0
-107 -185 -233 0
108 185 -234 0
-108 185 234 0
108 -185 234 0
-108 -185 -234 0
109 185 -235 0
-109 185 235 0
109 -185 235 0
-109 -185 -235 0
110 185 -236 0
-110 185 236 0
110 -185 236 0
-110 -185 -236 0
111 185 -237 0
-111 185 237 0
111 -185 237 0
-111 -185 -237 0
112 185 -238 0
-112 185 238 0
112 -185 238 0
-112 -185 -238 0
113 185 -239 0
-113 185 239 0
113 -185 239 0
-113 -185 -239 0
114 185 -240 0
-114 185 240 0
114 -185 240 0
-114 -185 -240 0
115 185 -241 0
-115 185 241 0
115 -185 241 0
-115 -185 -241 0
116 185 -242 0
-116 185 242 0
116 -185 242 0
-116 -185 -242 0
117 185 -243 0
-117 185 243 0
117 -185 243 0
-117 -185 -243 0
118 185 -244 0
-118 185 244 0
118 -185 244 0
-118 -185 -244 0
119 185 -245 0
-119 185 245 0
119 -185 245 0
-119 -185 -245 0
120 185 -246 0
-120 185 246 0
120 -185 246 0
-120 -185 -246 0
121 185 -247 0
-121 185 247 0
121 -185 247 0
-121 -185 -247 0
122 185 -248 0
-122 185 248 0
122 -185 248 0
-122 -185 -248 0
1 188 -250 0
-1 188 250 0
1 -188 250 0
-1 -188 -250 0
250 185 -123 0
-250 185 123 0
250 -185 123 0
-250 -185 -123 0
185 -251 0
250 -251 0
-185 -250 251 0
188 -252 0
1 -252 0
-188 -1 252 0
-251 249 0
-252 249 0
251 252 -249 0
2 189 -254 0
-2 189 254 0
2 -189 254 0
-2 -189 -254 0
254 249 -124 0
-254 249 124 0
254 -249 124 0
-254 -249 -124 0
249 -255 0
254 -255 0
-249 -254 255 0
189 -256 0
2 -256 0
-189 -2 256 0
-255 253 0
-256 253 0
255 256 -253 0
3 190 -258 0
-3 190 258 0
3 -190 258 0
-3 -190 -258 0
258 253 -125 0
-258 253 125 0
258 -253 125 0
-258 -253 -125 0
253 -259 0
258 -259 0
-253 -258 259 0
190 -260 0
3 -260 0
-190 -3 260 0
-259 257 0
-260 257 0
259 260 -257 0
4 191 -262 0
-4 191 262 0
4 -191 262 0
-4 -191 -262 0
262 257 -126 0
-262 257 126 0
262 -257 126 0
-262 -257 -126 0
257 -263 0
262 -263 0
-257 -262 263 0
191 -264 0
4 -264 0
-191 -4 264 0
-263 261 0
-264 261 0
263 264 -261 0
5 192 -266 0
-5 192 266 0
5 -192 266 0
-5 -192 -266 0
266 261 -127 0
-266 261 127 0
266 -261 127 0
-266 -261 -127 0
261 -267 0
266 -267 0
-261 -266 267 0
192 -268 0
5 -268 0
-192 -5 268 0
-267 265 0
-268 265 0
267 268 -265 0
6 193 -270 0
-6 193 270 0
6 -193 270 0
-6 -193 -270 0
270 265 -128 0
-270 265 128 0
270 -265 128 0
-270 -265 -128 0
265 -271 0
270 -271 0
-265 -270 271 0
193 -272 0
6 -272 0
-193 -6 272 0
-271 269 0
-272 269 0
271 272 -269 0
7 194 -274 0
-7 194 274 0
7 -194 274 0
-7 -194 -274 0
274 269 -129 0
-274 269 129 0
274 -269 129 0
-274 -269 -129 0
269 -275 0
274 -275 0
-269 -274 275 0
194 -276 0
7 -276 0
-194 -7 276 0
-275 273 0
-276 273 0
275 276 -273 0
8 195 -278 0
-8 195 278 0
8 -195 278 0
-8 -195 -278 0
278 273 -130 0
-278 273 130 0
278 -273 130 0
-278 -273 -130 0
273 -279 0
278 -279 0
-273 -278 279 0
195 -280 0
8 -280 0
-195 -8 280 0
-279 277 0
-280 277 0
279 280 -277 0
9 196 -282 0
-9 196 282 0
9 -196 282 0
-9 -196 -282 0
282 277 -131 0
-282 277 131 0
282 -277 131 0
-282 -277 -131 0
277 -283 0
282 -283 0
-277 -282 283 0
196 -284 0
9 -284 0
-196 -9 284 0
-283 281 0
-284 281 0
283 284 -281 0
10 197 -286 0
-10 197 286 0
10 -197 286 0
-10 -197 -286 0
286 281 -132 0
-286 281 132 0
286 -281 132 0
-286 -281 -132 0
281 -287 0
286 -287 0
-281 -286 287 0
197 -288 0
10 -288 0
-197 -10 288 0
-287 285 0
-288 285 0
287 288 -285 0
11 198 -290 0
-11 198 290 0
11 -198 290 0
-11 -198 -290 0
290 285 -133 0
-290 285 133 0
290 -285 133 0
-290 -285 -133 0
285 -291 0
290 -291 0
-285 -290 291 0
198 -292 0
11 -292 0
-198 -11 292 0
-291 289 0
-292 289 0
291 292 -289 0
12 199 -294 0
-12 199 294 0
12 -199 294 0
-12 -199 -294 0
294 289 -134 0
-294 289 134 0
294 -289 134 0
-294 -289 -134 0
289 -295 0
294 -295 0
-289 -294 295 0
199 -296 0
12 -296 0
-199 -12 296 0
-295 293 0
-296 293 0
295 296 -293 0
13 200 -298 0
-13 200 298 0
13 -200 298 0
-13 -200 -298 0
298 293 -135 0
-298 293 135 0
298 -293 135 0
-298 -293 -135 0
293 -299 0
298 -299 0
-293 -298 299 0
200 -300 0
13 -300 0
-200 -13 300 0
-299 297 0
-300 297 0
299 300 -297 0
14 201 -302 0
-14 201 302 0
14 -201 302 0
-14 -201 -302 0
302 297 -136 0
-302 297 136 0
302 -297 136 0
-302 -297 -136 0
297 -303 0
302 -303 0
-297 -302 303 0
201 -304 0
14 -304 0
-201 -14 304 0
-303 301 0
-304 301 0
303 304 -301 0
15 202 -306 0
-15 202 306 0
15 -202 306 0
-15 -202 -306 0
306 301 -137 0
-306 301 137 0
306 -301 137 0
-306 -301 -137 0
301 -307 0
306 -307 0
-301 -306 307 0
202 -308 0
15 -308 0
-202 -15 308 0
-307 305 0
-308 305 0
307 308 -305 0
16 203 -310 0
-16 203 310 0
16 -203 310 0
-16 -203 -310 0
310 305 -138 0
-310 305 138 0
310 -305 138 0
-310 -305 -138 0
305 -311 0
310 -311 0
-305 -310 311 0
203 -312 0
16 -312 0
-203 -16 312 0
-311 309 0
-312 309 0
311 312 -309 0
17 204 -314 0
-17 204 314 0
17 -204 314 0
-17 -204 -314 0
314 309 -139 0
-314 309 139 0
314 -309 139 0
-314 -309 -139 0
309 -315 0
314 -315 0
-309 -314 315 0
204 -316 0
17 -316 0
-204 -17 316 0
-315 313 0
-316 313 0
315 316 -313 0
18 205 -318 0
-18 205 318 0
18 -205 318 0
-18 -205 -318 0
318 313 -140 0
-318 313 140 0
318 -313 140 0
-318 -313 -140 0
313 -319 0
318 -319 0
-313 -318 319 0
205 -320 0
18 -320 0
-205 -18 320 0
-319 317 0
-320 317 0
319 320 -317 0
19 206 -322 0
-19 206 322 0
19 -206 322 0
-19 -206 -322 0
322 317 -141 0
-322 317 141 0
322 -317 141 0
-322 -317 -141 0
317 -323 0
322 -323 0
-317 -322 323 0
206 -324 0
19 -324 0
-206 -19 324 0
-323 321 0
-324 321 0
323 324 -321 0
20 207 -326 0
-20 207 326 0
20 -207 326 0
-20 -207 -326 0
326 321 -142 0
-326 321 142 0
326 -321 142 0
-326 -321 -142 0
321 -327 0
326 -327 0
-321 -326 327 0
207 -328 0
20 -328 0
-207 -20 328 0
-327 325 0
-328 325 0
327 328 -325 0
21 208 -330 0
-21 208 330 0
21 -208 330 0
-21 -208 -330 0
330 325 -143 0
-330 325 143 0
330 -325 143 0
-330 -325 -143 0
325 -331 0
330 -331 0
-325 -330 331 0
208 -332 0
21 -332 0
-208 -21 332 0
-331 329 0
-332 329 0
331 332 -329 0
22 209 -334 0
-22 209 334 0
22 -209 334 0
-22 -209 -334 0
334 329 -144 0
-334 329 144 0
334 -329 144 0
-334 -329 -144 0
329 -335 0
334 -335 0
-329 -334 335 0
209 -336 0
22 -336 0
-209 -22 336 0
-335 333 0
-336 333 0
335 336 -333 0
23 210 -338 0
-23 210 338 0
23 -210 338 0
-23 -210 -338 0
338 333 -145 0
-338 333 145 0
338 -333 145 0
-338 -333 -145 0
333 -339 0
338 -339 0
-333 -338 339 0
210 -340 0
23 -340 0
-210 -23 340 0
-339 337 0
-340 337 0
339 340 -337 0
24 211 -342 0
-24 211 342 0
24 -211 342 0
-24 -211 -342 0
342 337 -146 0
-342 337 146 0
342 -337 146 0
-342 -337 -146 0
337 -343 0
342 -343 0
-337 -342 343 0
211 -344 0
24 -344 0
-211 -24 344 0
-343 341 0
-344 341 0
343 344 -341 0
25 212 -346 0
-25 212 346 0
25 -212 346 0
-25 -212 -346 0
346 341 -147 0
-346 341 147 0
346 -341 147 0
-346 -341 -147 0
341 -347 0
346 -347 0
-341 -346 347 0
212 -348 0
25 -348 0
-212 -25 348 0
-347 345 0
-348 345 0
347 348 -345 0
26 213 -350 0
-26 213 350 0
26 -213 350 0
-26 -213 -350 0
350 345 -148 0
-350 345 148 0
350 -345 148 0
-350 -345 -148 0
345 -351 0
350 -351 0
-345 -350 351 0
213 -352 0
26 -352 0
-213 -26 352 0
-351 349 0
-352 349 0
351 352 -349 0
27 214 -354 0
-27 214 354 0
27 -214 354 0
-27 -214 -354 0
354 349 -149 0
-354 349 149 0
354 -349 149 0
-354 -349 -149 0
349 -355 0
354 -355 0
-349 -354 355 0
214 -356 0
27 -356 0
-214 -27 356 0
-355 353 0
-356 353 0
355 356 -353 0
28 215 -358 0
-28 215 358 0
28 -215 358 0
-28 -215 -358 0
358 353 -150 0
-358 353 150 0
358 -353 150 0
-358 -353 -150 0
353 -359 0
358 -359 0
-353 -358 359 0
215 -360 0
28 -360 0
-215 -28 360 0
-359 357 0
-360 357 0
359 360 -357 0
29 216 -362 0
-29 216 362 0
29 -216 362 0
-29 -216 -362 0
362 357 -151 0
-362 357 151 0
362 -357 151 0
-362 -357 -151 0
357 -363 0
362 -363 0
-357 -362 363 0
216 -364 0
29 -364 0
-216 -29 364 0
-363 361 0
-364 361 0
363 364 -361 0
30 217 -366 0
-30 217 366 0
30 -217 366 0
-30 -217 -366 0
366 361 -152 0
-366 361 152 0
366 -361 152 0
-366 -361 -152 0
361 -367 0
366 -367 0
-361 -366 367 0
217 -368 0
30 -368 0
-217 -30 368 0
-367 365 0
-368 365 0
367 368 -365 0
31 218 -370 0
-31 218 370 0
31 -218 370 0
-31 -218 -370 0
370 365 -153 0
-370 365 153 0
370 -365 153 0
-370 -365 -153 0
365 -371 0
370 -371 0
-365 -370 371 0
218 -372 0
31 -372 0
-218 -31 372 0
-371 369 0
-372 369 0
371 372 -369 0
32 219 -374 0
-32 219 374 0
32 -219 374 0
-32 -219 -374 0
374 369 -154 0
-374 369 154 0
374 -369 154 0
-374 -369 -154 0
369 -375 0
374 -375 0
-369 -374 375 0
219 -376 0
32 -376 0
-219 -32 376 0
-375 373 0
-376 373 0
375 376 -373 0
33 220 -378 0
-33 220 378 0
33 -220 378 0
-33 -220 -378 0
378 373 -155 0
-378 373 155 0
378 -373 155 0
-378 -373 -155 0
373 -379 0
378 -379 0
-373 -378 379 0
220 -380 0
33 -380 0
-220 -33 380 0
-379 377 0
-380 377 0
379 380 -377 0
34 221 -382 0
-34 221 382 0
34 -221 382 0
-34 -221 -382 0
382 377 -156 0
-382 377 156 0
382 -377 156 0
-382 -377 -156 0
377 -383 0
382 -383 0
-377 -382 383 0
221 -384 0
34 -384 0
-221 -34 384 0
-383 381 0
-384 381 0
383 384 -381 0
35 222 -386 0
-35 222 386 0
35 -222 386 0
-35 -222 -386 0
386 381 -157 0
-386 381 157 0
386 -381 157 0
-386 -381 -157 0
381 -387 0
386 -387 0
-381 -386 387 0
222 -388 0
35 -388 0
-222 -35 388 0
-387 385 0
-388 385 0
387 388 -385 0
36 223 -390 0
-36 223 390 0
36 -223 390 0
-36 -223 -390 0
390 385 -158 0
-390 385 158 0
390 -385 158 0
-390 -385 -158 0
385 -391 0
390 -391 0
-385 -390 391 0
223 -392 0
36 -392 0
-223 -36 392 0
-391 389 0
-392 389 0
391 392 -389 0
37 224 -394 0
-37 224 394 0
37 -224 394 0
-37 -224 -394 0
394 389 -159 0
-394 389 159 0
394 -389 159 0
-394 -389 -159 0
389 -395 0
394 -395 0
-389 -394 395 0
224 -396 0
37 -396 0
-224 -37 396 0
-395 393 0
-396 393 0
395 396 -393 0
38 225 -398 0
-38 225 398 0
38 -225 398 0
-38 -225 -398 0
398 393 -160 0
-398 393 160 0
398 -393 160 0
-398 -393 -160 0
393 -399 0
398 -399 0
-393 -398 399 0
225 -400 0
38 -400 0
-225 -38 400 0
-399 397 0
-400 397 0
399 400 -397 0
39 226 -402 0
-39 226 402 0
39 -226 402 0
-39 -226 -402 0
402 397 -161 0
-402 397 161 0
402 -397 161 0
-402 -397 -161 0
397 -403 0
402 -403 0
-397 -402 403 0
226 -404 0
39 -404 0
-226 -39 404 0
-403 401 0
-404 401 0
403 404 -401 0
40 227 -406 0
-40 227 406 0
40 -227 406 0
-40 -227 -406 0
406 401 -162 0
-406 401 162 0
406 -401 162 0
-406 -401 -162 0
401 -407 0
406 -407 0
-401 -406 407 0
227 -408 0
40 -408 0
-227 -40 408 0
-407 405 0
-408 405 0
407 408 -405 0
41 228 -410 0
-41 228 410 0
41 -228 410 0
-41 -228 -410 0
410 405 -163 0
-410 405 163 0
410 -405 163 0
-410 -405 -163 0
405 -411 0
410 -411 0
-405 -410 411 0
228 -412 0
41 -412 0
-228 -41 412 0
-411 409 0
-412 409 0
411 412 -409 0
42 229 -414 0
-42 229 414 0
42 -229 414 0
-42 -229 -414 0
414 409 -164 0
-414 409 164 0
414 -409 164 0
-414 -409 -164 0
409 -415 0
414 -415 0
-409 -414 415 0
229 -416 0
42 -416 0
-229 -42 416 0
-415 413 0
-416 413 0
415 416 -413 0
43 230 -418 0
-43 230 418 0
43 -230 418 0
-43 -230 -418 0
418 413 -165 0
-418 413 165 0
418 -413 165 0
-418 -413 -165 0
413 -419 0
418 -419 0
-413 -418 419 0
230 -420 0
43 -420 0
-230 -43 420 0
-419 417 0
-420 417 0
419 420 -417 0
44 231 -422 0
-44 231 422 0
44 -231 422 0
-44 -231 -422 0
422 417 -166 0
-422 417 166 0
422 -417 166 0
-422 -417 -166 0
417 -423 0
422 -423 0
-417 -422 423 0
231 -424 0
44 -424 0
-231 -44 424 0
-423 421 0
-424 421 0
423 424 -421 0
45 232 -426 0
-45 232 426 0
45 -232 426 0
-45 -232 -426 0
426 421 -167 0
-426 421 167 0
426 -421 167 0
-426 -421 -167 0
421 -427 0
426 -427 0
-421 -426 427 0
232 -428 0
45 -428 0
-232 -45 428 0
-427 425 0
-428 425 0
427 428 -425 0
46 233 -430 0
-46 233 430 0
46 -233 430 0
-46 -233 -430 0
430 425 -168 0
-430 425 168 0
430 -425 168 0
-430 -425 -168 0
425 -431 0
430 -431 0
-425 -430 431 0
233 -432 0
46 -432 0
-233 -46 432 0
-431 429 0
-432 429 0
431 432 -429 0
47 234 -434 0
-47 234 434 0
47 -234 434 0
-47 -234 -434 0
434 429 -169 0
-434 429 169 0
434 -429 169 0
-434 -429 -169 0
429 -435 0
434 -435 0
-429 -434 435 0
234 -436 0
47 -436 0
-234 -47 436 0
-435 433 0
-436 433 0
435 436 -433 0
48 235 -438 0
-48 235 438 0
48 -235 438 0
-48 -235 -438 0
438 433 -170 0
-438 433 170 0
438 -433 170 0
-438 -433 -170 0
433 -439 0
438 -439 0
-433 -438 439 0
235 -440 0
48 -440 0
-235 -48 440 0
-439 437 0
-440 437 0
439 440 -437 0
49 236 -442 0
-49 236 442 0
49 -236 442 0
-49 -236 -442 0
442 437 -171 0
-442 437 171 0
442 -437 171 0
-442 -437 -171 0
437 -443 0
442 -443 0
-437 -442 443 0
236 -444 0
49 -444 0
-236 -49 444 0
-443 441 0
-444 441 0
443 444 -441 0
50 237 -446 0
-50 237 446 0
50 -237 446 0
-50 -237 -446 0
446 441 -172 0
-446 441 172 0
446 -441 172 0
-446 -441 -172 0
441 -447 0
446 -447 0
-441 -446 447 0
237 -448 0
50 -448 0
-237 -50 448 0
-447 445 0
-448 445 0
447 448 -445 0
51 238 -450 0
-51 238 450 0
51 -238 450 0
-51 -238 -450 0
450 445 -173 0
-450 445 173 0
450 -445 173 0
-450 -445 -173 0
445 -451 0
450 -451 0
-445 -450 451 0
238 -452 0
51 -452 0
-238 -51 452 0
-451 449 0
-452 449 0
451 452 -449 0
52 239 -454 0
-52 239 454 0
52 -239 454 0
-52 -239 -454 0
454 449 -174 0
-454 449 174 0
454 -449 174 0
-454 -449 -174 0
449 -455 0
454 -455 0
-449 -454 455 0
239 -456 0
52 -456 0
-239 -52 456 0
-455 453 0
-456 453 0
455 456 -453 0
53 240 -458 0
-53 240 458 0
53 -240 458 0
-53 -240 -458 0
458 453 -175 0
-458 453 175 0
458 -453 175 0
-458 -453 -175 0
453 -459 0
458 -459 0
-453 -458 459 0
240 -460 0
53 -460 0
-240 -53 460 0
-459 457 0
-460 457 0
459 460 -457 0
54 241 -462 0
-54 241 462 0
54 -241 462 0
-54 -241 -462 0
462 457 -176 0
-462 457 176 0
462 -457 176 0
-462 -457 -176 0
457 -463 0
462 -463 0
-457 -462 463 0
241 -464 0
54 -464 0
-241 -54 464 0
-463 461 0
-464 461 0
463 464 -461 0
55 242 -466 0
-55 242 466 0
55 -242 466 0
-55 -242 -466 0
466 461 -177 0
-466 461 177 0
466 -461 177 0
-466 -461 -177 0
461 -467 0
466 -467 0
-461 -466 467 0
242 -468 0
55 -468 0
-242 -55 468 0
-467 465 0
-468 465 0
467 468 -465 0
56 243 -470 0
-56 243 470 0
56 -243 470 0
-56 -243 -470 0
470 465 -178 0
-470 465 178 0
470 -465 178 0
-470 -465 -178 0
465 -471 0
470 -471 0
-465 -470 471 0
243 -472 0
56 -472 0
-243 -56 472 0
-471 469 0
-472 469 0
471 472 -469 0
57 244 -474 0
-57 244 474 0
57 -244 474 0
-57 -244 -474 0
474 469 -179 0
-474 469 179 0
474 -469 179 0
-474 -469 -179 0
469 -475 0
474 -475 0
-469 -474 475 0
244 -476 0
57 -476 0
-244 -57 476 0
-475 473 0
-476 473 0
475 476 -473 0
58 245 -478 0
-58 245 478 0
58 -245 478 0
-58 -245 -478 0
478 473 -180 0
-478 473 180 0
478 -473 180 0
-478 -473 -180 0
473 -479 0
478 -479 0
-473 -478 479 0
245 -480 0
58 -480 0
-245 -58 480 0
-479 477 0
-480 477 0
479 480 -477 0
59 246 -482 0
-59 246 482 0
59 -246 482 0
-59 -246 -482 0
482 477 -181 0
-482 477 181 0
482 -477 181 0
-482 -477 -181 0
477 -483 0
482 -483 0
-477 -482 483 0
246 -484 0
59 -484 0
-246 -59 484 0
-483 481 0
-484 481 0
483 484 -481 0
60 247 -486 0
-60 247 486 0
60 -247 486 0
-60 -247 -486 0
486 481 -182 0
-486 481 182 0
486 -481 182 0
-486 -481 -182 0
481 -487 0
486 -487 0
-481 -486 487 0
247 -488 0
60 -488 0
-247 -60 488 0
-487 485 0
-488 485 0
487 488 -485 0
61 248 -490 0
-61 248 490 0
61 -248 490 0
-61 -248 -490 0
490 485 -183 0
-490 485 183 0
490 -485 183 0
-490 -485 -183 0
485 -491 0
490 -491 0
-485 -490 491 0
248 -492 0
61 -492 0
-248 -61 492 0
-491 489 0
-492 489 0
491 492 -489 0
489 185 -184 0
-489 185 184 0
489 -185 184 0
-489 -185 -184 0
